nK = 918;
nT = 4;
nI = 7;
L = 29;
TT = 251;
np = 1;
nc = 3;
b = [24, 45, 62, 64, 58, 50, 52];
d = [48, 126, 123, 108, 134, 78, 78];
m = [2.5, 1.3, 1.5, 2.2, 1.8, 2.3, 1.2];
pt = [0.29, 0.32, 0.28, 0.26];
st = [15.37, 16.64, 13.16, 12.22];
arc = {<1, 0, 1, 1, 0, 0, 0, [1, 1, 1, 1]>, <2, 1, 2, 1, 0, 0, 0, [1, 1, 1, 1]>, <3, 2, 3, 1, 0, 0, 0, [1, 1, 1, 1]>, <4, 3, 4, 1, 0, 0, 0, [1, 1, 1, 1]>, <5, 4, 5, 1, 0, 0, 0, [1, 1, 1, 1]>, <6, 5, 6, 1, 0, 0, 0, [1, 1, 1, 1]>, <7, 6, 7, 1, 0, 0, 0, [1, 1, 1, 1]>, <8, 7, 8, 1, 0, 0, 0, [1, 1, 1, 1]>, <9, 8, 9, 1, 0, 0, 0, [1, 1, 1, 1]>, <10, 9, 10, 1, 0, 0, 0, [1, 1, 1, 1]>, <11, 10, 11, 1, 0, 0, 0, [1, 1, 1, 1]>, <12, 11, 12, 1, 0, 0, 0, [1, 1, 1, 1]>, <13, 12, 13, 1, 0, 0, 0, [1, 1, 1, 1]>, <14, 13, 14, 1, 0, 0, 0, [1, 1, 1, 1]>, <15, 14, 15, 1, 0, 0, 0, [1, 1, 1, 1]>, <16, 15, 16, 1, 0, 0, 0, [1, 1, 1, 1]>, <17, 16, 17, 1, 0, 0, 0, [1, 1, 1, 1]>, <18, 17, 18, 1, 0, 0, 0, [1, 1, 1, 1]>, <19, 18, 19, 1, 0, 0, 0, [1, 1, 1, 1]>, <20, 19, 20, 1, 0, 0, 0, [1, 1, 1, 1]>, <21, 20, 21, 1, 0, 0, 0, [1, 1, 1, 1]>, <22, 21, 22, 1, 0, 0, 0, [1, 1, 1, 1]>, <23, 22, 23, 1, 0, 0, 0, [1, 1, 1, 1]>, <24, 23, 24, 1, 0, 0, 0, [1, 1, 1, 1]>, <25, 24, 25, 1, 0, 0, 0, [1, 1, 1, 1]>, <26, 25, 26, 1, 0, 0, 0, [1, 1, 1, 1]>, <27, 26, 27, 1, 0, 0, 0, [1, 1, 1, 1]>, <28, 27, 28, 1, 0, 0, 0, [1, 1, 1, 1]>, <29, 28, 29, 1, 0, 0, 0, [1, 1, 1, 1]>, <30, 0, 17, 17, 1, 0, 1, [1, 0, 1, 1]>, <31, 1, 18, 17, 1, 0, 1, [1, 0, 1, 1]>, <32, 2, 19, 17, 1, 0, 1, [1, 0, 1, 1]>, <33, 3, 20, 17, 1, 0, 1, [1, 0, 1, 1]>, <34, 4, 21, 17, 1, 0, 1, [1, 0, 1, 1]>, <35, 5, 22, 17, 1, 0, 1, [1, 0, 1, 1]>, <36, 6, 23, 17, 1, 0, 1, [1, 0, 1, 1]>, <37, 7, 24, 17, 1, 0, 1, [1, 0, 1, 1]>, <38, 8, 25, 17, 1, 0, 1, [1, 0, 1, 1]>, <39, 9, 26, 17, 1, 0, 1, [1, 0, 1, 1]>, <40, 10, 27, 17, 1, 0, 1, [1, 0, 1, 1]>, <41, 11, 28, 17, 1, 0, 1, [1, 0, 1, 1]>, <42, 12, 29, 17, 1, 0, 1, [1, 0, 1, 1]>, <43, 0, 15, 15, 2, 0, 1, [1, 1, 0, 1]>, <44, 1, 16, 15, 2, 0, 1, [1, 1, 0, 1]>, <45, 2, 17, 15, 2, 0, 1, [1, 1, 0, 1]>, <46, 3, 18, 15, 2, 0, 1, [1, 1, 0, 1]>, <47, 4, 19, 15, 2, 0, 1, [1, 1, 0, 1]>, <48, 5, 20, 15, 2, 0, 1, [1, 1, 0, 1]>, <49, 6, 21, 15, 2, 0, 1, [1, 1, 0, 1]>, <50, 7, 22, 15, 2, 0, 1, [1, 1, 0, 1]>, <51, 8, 23, 15, 2, 0, 1, [1, 1, 0, 1]>, <52, 9, 24, 15, 2, 0, 1, [1, 1, 0, 1]>, <53, 10, 25, 15, 2, 0, 1, [1, 1, 0, 1]>, <54, 11, 26, 15, 2, 0, 1, [1, 1, 0, 1]>, <55, 12, 27, 15, 2, 0, 1, [1, 1, 0, 1]>, <56, 13, 28, 15, 2, 0, 1, [1, 1, 0, 1]>, <57, 14, 29, 15, 2, 0, 1, [1, 1, 0, 1]>, <58, 0, 16, 16, 3, 0, 0, [1, 0, 1, 1]>, <59, 1, 17, 16, 3, 0, 0, [1, 0, 1, 1]>, <60, 2, 18, 16, 3, 0, 0, [1, 0, 1, 1]>, <61, 3, 19, 16, 3, 0, 0, [1, 0, 1, 1]>, <62, 4, 20, 16, 3, 0, 0, [1, 0, 1, 1]>, <63, 5, 21, 16, 3, 0, 0, [1, 0, 1, 1]>, <64, 6, 22, 16, 3, 0, 0, [1, 0, 1, 1]>, <65, 7, 23, 16, 3, 0, 0, [1, 0, 1, 1]>, <66, 8, 24, 16, 3, 0, 0, [1, 0, 1, 1]>, <67, 9, 25, 16, 3, 0, 0, [1, 0, 1, 1]>, <68, 10, 26, 16, 3, 0, 0, [1, 0, 1, 1]>, <69, 11, 27, 16, 3, 0, 0, [1, 0, 1, 1]>, <70, 12, 28, 16, 3, 0, 0, [1, 0, 1, 1]>, <71, 13, 29, 16, 3, 0, 0, [1, 0, 1, 1]>, <72, 0, 16, 16, 4, 0, 1, [0, 1, 1, 1]>, <73, 1, 17, 16, 4, 0, 1, [0, 1, 1, 1]>, <74, 2, 18, 16, 4, 0, 1, [0, 1, 1, 1]>, <75, 3, 19, 16, 4, 0, 1, [0, 1, 1, 1]>, <76, 4, 20, 16, 4, 0, 1, [0, 1, 1, 1]>, <77, 5, 21, 16, 4, 0, 1, [0, 1, 1, 1]>, <78, 6, 22, 16, 4, 0, 1, [0, 1, 1, 1]>, <79, 7, 23, 16, 4, 0, 1, [0, 1, 1, 1]>, <80, 8, 24, 16, 4, 0, 1, [0, 1, 1, 1]>, <81, 9, 25, 16, 4, 0, 1, [0, 1, 1, 1]>, <82, 10, 26, 16, 4, 0, 1, [0, 1, 1, 1]>, <83, 11, 27, 16, 4, 0, 1, [0, 1, 1, 1]>, <84, 12, 28, 16, 4, 0, 1, [0, 1, 1, 1]>, <85, 13, 29, 16, 4, 0, 1, [0, 1, 1, 1]>, <86, 0, 17, 17, 5, 0, 0, [1, 1, 1, 0]>, <87, 1, 18, 17, 5, 0, 0, [1, 1, 1, 0]>, <88, 2, 19, 17, 5, 0, 0, [1, 1, 1, 0]>, <89, 3, 20, 17, 5, 0, 0, [1, 1, 1, 0]>, <90, 4, 21, 17, 5, 0, 0, [1, 1, 1, 0]>, <91, 5, 22, 17, 5, 0, 0, [1, 1, 1, 0]>, <92, 6, 23, 17, 5, 0, 0, [1, 1, 1, 0]>, <93, 7, 24, 17, 5, 0, 0, [1, 1, 1, 0]>, <94, 8, 25, 17, 5, 0, 0, [1, 1, 1, 0]>, <95, 9, 26, 17, 5, 0, 0, [1, 1, 1, 0]>, <96, 10, 27, 17, 5, 0, 0, [1, 1, 1, 0]>, <97, 11, 28, 17, 5, 0, 0, [1, 1, 1, 0]>, <98, 12, 29, 17, 5, 0, 0, [1, 1, 1, 0]>, <99, 0, 15, 15, 6, 0, 1, [1, 0, 1, 1]>, <100, 1, 16, 15, 6, 0, 1, [1, 0, 1, 1]>, <101, 2, 17, 15, 6, 0, 1, [1, 0, 1, 1]>, <102, 3, 18, 15, 6, 0, 1, [1, 0, 1, 1]>, <103, 4, 19, 15, 6, 0, 1, [1, 0, 1, 1]>, <104, 5, 20, 15, 6, 0, 1, [1, 0, 1, 1]>, <105, 6, 21, 15, 6, 0, 1, [1, 0, 1, 1]>, <106, 7, 22, 15, 6, 0, 1, [1, 0, 1, 1]>, <107, 8, 23, 15, 6, 0, 1, [1, 0, 1, 1]>, <108, 9, 24, 15, 6, 0, 1, [1, 0, 1, 1]>, <109, 10, 25, 15, 6, 0, 1, [1, 0, 1, 1]>, <110, 11, 26, 15, 6, 0, 1, [1, 0, 1, 1]>, <111, 12, 27, 15, 6, 0, 1, [1, 0, 1, 1]>, <112, 13, 28, 15, 6, 0, 1, [1, 0, 1, 1]>, <113, 14, 29, 15, 6, 0, 1, [1, 0, 1, 1]>, <114, 0, 14, 14, 7, 1, 0, [1, 0, 1, 1]>, <115, 1, 15, 14, 7, 1, 0, [1, 0, 1, 1]>, <116, 2, 16, 14, 7, 1, 0, [1, 0, 1, 1]>, <117, 3, 17, 14, 7, 1, 0, [1, 0, 1, 1]>, <118, 4, 18, 14, 7, 1, 0, [1, 0, 1, 1]>, <119, 5, 19, 14, 7, 1, 0, [1, 0, 1, 1]>, <120, 6, 20, 14, 7, 1, 0, [1, 0, 1, 1]>, <121, 7, 21, 14, 7, 1, 0, [1, 0, 1, 1]>, <122, 8, 22, 14, 7, 1, 0, [1, 0, 1, 1]>, <123, 9, 23, 14, 7, 1, 0, [1, 0, 1, 1]>, <124, 10, 24, 14, 7, 1, 0, [1, 0, 1, 1]>, <125, 11, 25, 14, 7, 1, 0, [1, 0, 1, 1]>, <126, 12, 26, 14, 7, 1, 0, [1, 0, 1, 1]>, <127, 13, 27, 14, 7, 1, 0, [1, 0, 1, 1]>, <128, 14, 28, 14, 7, 1, 0, [1, 0, 1, 1]>, <129, 15, 29, 14, 7, 1, 0, [1, 0, 1, 1]>};
